[[130,144,266,426,460,613,656,756,766,857,926],[135,199,255,372,446,645,660,691,760,837,1000],[160,274,331,362,428,463,587,716,813,874,992],[170,226,304,341,430,588,648,680,742,910,961],[182,238,309,344,385,453,670,734,832,912,941],[189,248,315,346,390,535,604,687,840,916,930],[191,319,351,416,458,542,605,657,689,848,924],[217,292,337,364,487,537,606,663,704,805,988],[113,213,330,360,476,492,517,520,521,530,546,665]]